CapLotSizing_PM/src/Instancias/NCLSHT/6i12p2m/NBA04.OUT
 CG ITER, OVMR, OVMRUB =           1   14301.5039062   14301.5029297
 CG ITER, OVMR, OVMRUB =           2   14301.5039062   14301.5029297
 CG ITER, OVMR, OVMRUB =           3   14301.5029297   14301.5029297
 CG ITER, OVMR, OVMRUB =           4   14301.5019531   14301.5029297
 CG ITER, OVMR, OVMRUB =           5   12476.9062500   14301.5029297
 CG ITER, OVMR, OVMRUB =           6   12712.9814453   14301.5029297
 CG ITER, OVMR, OVMRUB =           7   13182.8056641   14301.5029297
 CG ITER, OVMR, OVMRUB =           8   13302.9580078   14301.5029297
 CG ITER, OVMR, OVMRUB =           9   13428.9550781   14301.5029297
 CG ITER, OVMR, OVMRUB =          10   13489.9697266   14301.5029297
 CG ITER, OVMR, OVMRUB =          11   13494.9169922   14301.5029297
 CG ITER, OVMR, OVMRUB =          12   13474.7988281   14301.5029297
 CG ITER, OVMR, OVMRUB =          13   13471.2207031   14301.5029297
 CG ITER, OVMR, OVMRUB =          14   13460.6357422   14301.5029297
 CG ITER, OVMR, OVMRUB =          15   13459.3769531   14301.5029297
 CG ITER, OVMR, OVMRUB =          16   13461.2353516   14301.5029297
 CG ITER, OVMR, OVMRUB =          17   13462.9736328   14221.8408203
 CG ITER, OVMR, OVMRUB =          18   13463.3388672   14221.8408203
 CG ITER, OVMR, OVMRUB =          19   13465.7568359   14221.8408203
 CG ITER, OVMR, OVMRUB =          20   13468.0556641   14121.1728516
 CG ITER, OVMR, OVMRUB =          21   13469.7783203   13985.2988281
 CG ITER, OVMR, OVMRUB =          22   13471.4697266   13985.2988281
 CG ITER, OVMR, OVMRUB =          23   13473.6318359   13985.2988281
 CG ITER, OVMR, OVMRUB =          24   13473.7675781   13985.2988281
 CG ITER, OVMR, OVMRUB =          25   13475.3632812   13985.2988281
 CG ITER, OVMR, OVMRUB =          26   13476.6308594   13904.0605469
 CG ITER, OVMR, OVMRUB =          27   13477.6904297   13904.0605469
 CG ITER, OVMR, OVMRUB =          28   13479.6250000   13904.0605469
 CG ITER, OVMR, OVMRUB =          29   13479.6591797   13904.0605469
 CG ITER, OVMR, OVMRUB =          30   13481.1464844   13904.0605469
 CG ITER, OVMR, OVMRUB =          31   13482.2187500   13904.0605469
 CG ITER, OVMR, OVMRUB =          32   13483.7763672   13904.0605469
 CG ITER, OVMR, OVMRUB =          33   13483.5771484   13904.0605469
 CG ITER, OVMR, OVMRUB =          34   13483.6328125   13904.0605469
 CG ITER, OVMR, OVMRUB =          35   13485.5292969   13904.0605469
 CG ITER, OVMR, OVMRUB =          36   13485.5292969   13882.7431641
OVLB =   13485.5292969 OVLUB =   13882.7431641 TIME =       4.1999998
